NAME: ch130
TYPE: TSP
COMMENT: 130 city problem (Churritz)
DIMENSION: 130
EDGE_WEIGHT_TYPE: EUC_2D
NODE_COORD_SECTION
1 334 161
2 397 262
3 503 172
4 444 384
5 311 2
6 662 549
7 40 187
8 526 215
9 209 691
10 683 414
EOF
